c SAT Generator for power-law distributed variable frequencies
c -g u -v 20 -c 91 -k 3 -p 2.750000 -b 3.200000 -f /home/schmidt/Devel/ni-kop-sat/data/ensemble/ruf20-91/ruf20-91-295 -u 1 -U 1 -s 380258684
p cnf 20 91
3 -9 -19 0
-1 8 19 0
12 14 19 0
5 6 -15 0
1 -2 19 0
-5 -9 -15 0
-3 9 16 0
6 -7 10 0
2 -5 12 0
5 11 13 0
12 -15 -17 0
2 -11 -16 0
-1 -7 -9 0
1 9 13 0
1 -12 15 0
8 -10 17 0
-4 -13 14 0
-4 7 -19 0
4 9 15 0
-11 16 -20 0
-10 -15 -16 0
9 13 19 0
-15 16 20 0
2 -3 -16 0
4 -18 20 0
-10 12 -14 0
2 -7 16 0
3 -12 18 0
-1 -5 -19 0
-4 6 -12 0
-1 4 8 0
3 -13 20 0
10 -11 12 0
14 -16 -18 0
-6 -11 18 0
1 -2 13 0
-10 -18 19 0
15 16 -17 0
5 6 -10 0
7 8 -20 0
-5 -11 20 0
-11 16 -19 0
-5 12 -14 0
3 -6 19 0
4 -11 16 0
-2 5 -7 0
-3 -19 20 0
-13 14 -20 0
6 -11 -19 0
-6 -9 -10 0
-3 -16 20 0
-3 -7 -9 0
-2 15 -16 0
-14 18 -20 0
-4 -10 -11 0
3 11 -17 0
-1 4 -7 0
8 13 -19 0
-6 12 19 0
-11 -12 15 0
-11 12 -13 0
1 -14 -20 0
1 -5 -20 0
-2 8 14 0
1 -7 -19 0
6 11 -16 0
4 -6 13 0
2 8 -9 0
-6 -7 13 0
-8 9 16 0
2 -7 12 0
-6 13 18 0
2 4 -5 0
2 8 -20 0
-13 14 15 0
-14 -16 20 0
-5 13 -18 0
3 5 -13 0
-3 -7 -13 0
-4 8 -10 0
-7 11 -12 0
2 -6 11 0
-4 12 19 0
3 -18 -19 0
10 -13 15 0
-6 -13 14 0
1 -13 -19 0
13 -15 16 0
4 12 19 0
5 -6 14 0
-9 10 -14 0
